solution status: gap limit reached
objective value:                                97870
P1C1                                                1 	(obj:0)
P39C1                                               1 	(obj:0)
P0C2                                                1 	(obj:0)
P8C2                                                1 	(obj:0)
P28C2                                               1 	(obj:0)
P16C3                                               1 	(obj:0)
P71C3                                               1 	(obj:0)
P79C4                                               1 	(obj:0)
P87C4                                               1 	(obj:0)
P45C5                                               1 	(obj:0)
P49C5                                               1 	(obj:0)
P97C6                                               1 	(obj:0)
P99C6                                               1 	(obj:0)
P12C7                                               1 	(obj:0)
P80C7                                               1 	(obj:0)
P52C8                                               1 	(obj:0)
P59C8                                               1 	(obj:0)
P73C8                                               1 	(obj:0)
P40C9                                               1 	(obj:0)
P90C9                                               1 	(obj:0)
P19C10                                              1 	(obj:0)
P83C10                                              1 	(obj:0)
P17C12                                              1 	(obj:0)
P36C12                                              1 	(obj:0)
P94C12                                              1 	(obj:0)
P42C13                                              1 	(obj:0)
P44C13                                              1 	(obj:0)
P56C14                                              1 	(obj:0)
P63C14                                              1 	(obj:0)
P68C14                                              1 	(obj:0)
P51C15                                              1 	(obj:0)
P86C15                                              1 	(obj:0)
P26C16                                              1 	(obj:0)
P98C16                                              1 	(obj:0)
P2C17                                               1 	(obj:0)
P20C17                                              1 	(obj:0)
P21C18                                              1 	(obj:0)
P33C18                                              1 	(obj:0)
P64C18                                              1 	(obj:0)
P65C18                                              1 	(obj:0)
P82C20                                              1 	(obj:0)
P95C20                                              1 	(obj:0)
P72C21                                              1 	(obj:0)
P81C21                                              1 	(obj:0)
P38C22                                              1 	(obj:0)
P47C22                                              1 	(obj:0)
P53C22                                              1 	(obj:0)
P7C23                                               1 	(obj:0)
P69C23                                              1 	(obj:0)
P4C24                                               1 	(obj:0)
P30C24                                              1 	(obj:0)
P24C25                                              1 	(obj:0)
P50C25                                              1 	(obj:0)
P43C26                                              1 	(obj:0)
P77C26                                              1 	(obj:0)
P5C27                                               1 	(obj:0)
P84C28                                              1 	(obj:0)
P6C29                                               1 	(obj:0)
P58C29                                              1 	(obj:0)
P31C30                                              1 	(obj:0)
P46C30                                              1 	(obj:0)
P78C30                                              1 	(obj:0)
P10C31                                              1 	(obj:0)
P74C31                                              1 	(obj:0)
P75C32                                              1 	(obj:0)
P14C33                                              1 	(obj:0)
P22C33                                              1 	(obj:0)
P61C34                                              1 	(obj:0)
P93C34                                              1 	(obj:0)
P54C35                                              1 	(obj:0)
P85C35                                              1 	(obj:0)
P15C36                                              1 	(obj:0)
P23C36                                              1 	(obj:0)
P25C36                                              1 	(obj:0)
P13C37                                              1 	(obj:0)
P27C37                                              1 	(obj:0)
P76C37                                              1 	(obj:0)
P88C37                                              1 	(obj:0)
P3C39                                               1 	(obj:0)
P9C39                                               1 	(obj:0)
P35C39                                              1 	(obj:0)
P70C39                                              1 	(obj:0)
P57C40                                              1 	(obj:0)
P18C41                                              1 	(obj:0)
P55C41                                              1 	(obj:0)
P91C41                                              1 	(obj:0)
P34C42                                              1 	(obj:0)
P48C42                                              1 	(obj:0)
P62C42                                              1 	(obj:0)
P67C43                                              1 	(obj:0)
P96C43                                              1 	(obj:0)
P29C45                                              1 	(obj:0)
P32C45                                              1 	(obj:0)
P92C45                                              1 	(obj:0)
P37C46                                              1 	(obj:0)
P66C46                                              1 	(obj:0)
P11C47                                              1 	(obj:0)
P60C47                                              1 	(obj:0)
P89C47                                              1 	(obj:0)
P41C49                                              1 	(obj:0)
Cost                                            97870 	(obj:1)
